&CONTROL
  calculation = 'scf',
  prefix = 'BPDA',
  outdir = './tmp/'
  pseudo_dir = '/home/luw/ONCVPSP/abinit'
  verbosity = 'high'
  lelfield=.true.,
  nberrycyc=3

/

&SYSTEM
  ibrav =  0,
  nat =  240,
  ntyp = 4,
  ecutwfc = 40
/

&ELECTRONS
  mixing_beta = 0.6
  efield_cart(1)=0.0d0,efield_cart(2)=0.001d0,efield_cart(3)=0.0d0
/

ATOMIC_SPECIES
C  12.010700   C_ONCV_PBE_sr.upf 
N  14.006700   N_ONCV_PBE_sr.upf 
H  1.007940    H_ONCV_PBE_sr.upf 
O  15.999000   O_ONCV_PBE_sr.upf 

CELL_PARAMETERS angstrom 
7.597981 0.0  0.0  
0.000000 6.887649  0.0  
0.000000 0.000 51.262916

ATOMIC_POSITIONS (angstrom)
C   6.433082   5.353520   4.417223
C   7.858501   5.567752   4.559081
C   8.663055   5.856648   3.434695
C   8.054260   6.000246   2.142982
C   5.777669   5.504540   3.147582
C   6.558066   5.827022   1.991481
C   8.688980   6.351262   0.791209
N   7.532513   6.447985   -0.242396
C   3.700560   5.821747   21.429158
H   8.329676   5.487021   5.533240
H   9.741100   5.980310   3.542533
H   4.700208   5.398935   3.057638
O   5.109385   5.930871   0.066086
C   6.195147   6.055464   0.523566
O   9.854931   6.475855   0.593272
C   5.595802   4.988605   5.639864
C   4.272949   4.422210   5.339123
C   3.317894   4.251193   6.342445
C   3.671339   4.615245   7.706025
C   6.024984   5.231915   7.030550
C   5.060036   5.081409   8.072006
C   2.750380   4.688726   8.916686
N   3.585383   5.257514   10.105756
O   1.596342   4.387512   8.888146
H   4.011441   4.147168   4.317130
H   2.314705   3.887466   6.115683
H   7.024197   5.608366   7.247446
O   6.008466   5.829351   10.164482
C   5.060948   5.440095   9.565899
C   4.437986   6.379783   22.533760
H   8.170902   6.848651   42.867833
H   5.342292   5.279501   17.931296
C   1.479852   6.225064   17.828053
C   2.200582   5.985631   16.581482
C   3.606489   5.622759   16.664977
C   4.277255   5.534397   17.894537
C   3.548617   5.786803   19.128969
C   2.130692   6.104989   19.062231
C   8.915282   7.019978   48.904334
H   1.878030   4.662721   20.929889
O   4.308959   5.893105   20.225632
H   0.099723   5.455056   13.313372
C   1.161468   5.640396   13.121807
C   1.665119   5.482416   11.800209
H   0.987420   4.677762   23.211259
C   3.051902   5.621719   11.448137
O   1.479980   6.035362   15.456904
C   3.862469   6.076852   12.538941
H   4.922535   6.258865   12.355159
C   3.379796   6.315433   13.854437
H   4.074119   6.716400   14.596955
C   2.018028   6.022998   14.216680
H   4.174274   5.402197   15.766016
H   0.420090   6.502738   17.806269
C   3.941917   6.281046   23.862968
C   2.659575   5.716568   24.162902
H   4.552647   6.693104   24.669862
C   1.953400   5.156066   23.041141
H   1.562977   6.299343   19.972924
C   2.450733   5.163361   21.714904
H   0.950679   5.207283   11.022071
C   0.715774   5.265409   30.198090
C   -0.528353   4.865501   29.564937
C   -0.697160   4.861943   28.167284
C   0.433552   5.217718   27.342479
C   1.854401   5.634824   29.408017
C   1.733988   5.658548   27.983564
C   0.603482   5.142420   25.829939
N   2.016576   5.757485   25.504282
C   8.985509   7.350285   47.527163
H   -1.384446   4.534100   30.149029
H   -1.646505   4.560983   27.714755
H   2.794657   5.920278   29.879836
O   3.812379   6.487069   27.061507
C   2.721941   6.050586   26.881073
O   -0.158846   4.594542   25.097187
H   0.596606   5.946593   38.757761
C   0.798067   5.333959   31.713876
C   -0.515775   5.221576   32.353520
C   -0.679875   5.294659   33.738496
C   0.484350   5.549365   34.565650
C   1.997226   5.561155   32.531969
C   1.856206   5.680096   33.948425
C   0.549237   5.827852   36.063999
N   2.029434   6.180876   36.413575
O   -0.395187   5.790781   36.788896
H   -1.417949   5.107332   31.760130
H   -1.668913   5.206995   34.182107
H   2.983598   5.670064   32.073070
O   4.024813   6.044403   34.942167
C   2.848877   5.995510   35.077467
C   7.842517   7.196583   46.654010
O   7.945675   7.536056   45.365335
H   5.262496   8.151064   45.858669
C   6.086693   6.729298   42.280292
C   4.703955   6.885216   42.680910
C   4.439892   7.392186   44.021095
C   5.497462   7.712471   44.892778
C   6.881460   7.455551   44.533590
C   7.137265   7.004365   43.179295
H   5.660909   5.996383   49.064287
H   9.828804   7.136015   49.499070
H   9.932827   7.720404   47.118953
H   1.349121   6.045492   41.072155
C   2.084434   6.180185   40.279580
C   1.659206   6.129766   38.928304
C   2.543760   6.292179   37.809373
O   3.623746   6.544150   41.965909
C   3.904972   6.549971   38.182462
H   4.638883   6.705497   37.386633
C   4.371167   6.627066   39.521071
H   5.426297   6.847202   39.682178
C   3.469525   6.431205   40.631311
H   3.405140   7.550925   44.343889
H   6.323310   6.360260   41.286482
C   6.658848   6.640786   47.264063
C   6.597236   6.384732   48.657892
H   5.778655   6.404739   46.664876
C   7.705805   6.591396   49.547513
H   5.385447   6.874650   22.323388
C   6.525050   9.540941   0.286609
C   7.928035   9.906392   0.178671
C   8.523642   10.229216   -1.055853
C   7.729584   10.197995   -2.258157
C   5.679585   9.557527   -0.886157
C   6.258439   9.857612   -2.152850
C   8.046399   10.529134   -3.712644
N   6.705390   10.450903   -4.527363
C   5.930570   9.102118   17.986567
H   8.549883   9.935562   1.072411
H   9.580947   10.510884   -1.100463
H   4.609147   9.352094   -0.839259
O   4.482813   9.632302   -3.788917
C   5.602337   9.952380   -3.545243
O   9.121888   10.840475   -4.115301
C   5.937281   9.145389   1.611148
C   4.548522   8.689471   1.575516
C   3.848919   8.291678   2.724979
C   4.530436   8.347180   3.997058
C   6.666766   9.180647   2.868103
C   5.975599   8.805710   4.061256
C   3.984498   8.046210   5.389088
N   5.182742   8.271171   6.381969
O   2.845813   7.786493   5.622657
H   4.006640   8.636209   0.638774
H   2.810084   7.962723   2.665120
H   7.709031   9.508101   2.919676
O   7.434603   9.230881   5.925301
C   6.396852   8.806369   5.532001
C   6.381034   9.682776   19.227871
H   4.031189   9.139162   41.680276
H   7.618800   7.763751   14.790044
C   4.427643   9.981056   14.150534
C   5.057507   9.286592   13.032799
C   6.238569   8.484948   13.285876
C   6.733620   8.367083   14.598238
C   6.095310   9.028064   15.723194
C   4.903182   9.814297   15.461737
C   7.721775   10.471918   44.391538
H   4.195713   8.124831   17.032166
O   6.734892   9.035514   16.910499
H   2.591471   8.222775   10.336639
C   3.568475   8.413241   9.884744
C   3.740194   8.287944   8.486455
H   2.679699   8.443574   18.934915
C   5.008401   8.499116   7.841543
O   4.277957   9.251134   11.947141
C   6.087843   8.892779   8.705124
H   7.072679   9.082447   8.265891
C   5.957523   9.049703   10.104658
H   6.820547   9.360522   10.697926
C   4.673214   8.828112   10.726339
H   6.739980   7.961152   12.469547
H   3.550749   10.603607   13.956370
C   5.512757   9.764523   20.346585
C   4.156303   9.298344   20.315060
H   5.894452   10.212457   21.270730
C   3.712158   8.781178   19.048847
H   4.380193   10.304569   16.283786
C   4.572912   8.611246   17.936554
H   2.865862   8.011031   7.889052
C   0.917433   8.680975   25.790478
C   -0.121083   8.215226   24.864649
C   0.082235   8.202349   23.481155
C   1.380973   8.582842   22.968073
C   2.255275   9.050822   25.295710
C   2.506065   9.001044   23.890760
C   1.818349   8.698776   21.511794
N   3.285072   9.234547   21.519878
C   7.645864   10.445775   42.973557
H   -1.091400   7.898330   25.230873
H   -0.716290   7.929539   22.797765
H   3.042268   9.387026   25.970617
O   4.787002   9.670966   23.470252
C   3.724415   9.370750   23.038252
O   1.105652   8.478851   20.582693
H   -0.758819   8.851508   34.168757
C   0.498243   8.744107   27.244279
C   -0.873488   8.462991   27.640139
C   -1.246608   8.374871   28.992051
C   -0.235035   8.609009   29.992028
C   1.511847   9.058287   28.212173
C   1.189179   8.961254   29.597660
C   -0.354317   8.555471   31.509921
N   1.074066   8.785608   32.082236
O   -1.376782   8.395050   32.102575
H   -1.654751   8.293994   26.902733
H   -2.271226   8.124438   29.288801
H   2.526594   9.311932   27.904093
O   3.214012   9.345069   30.853762
C   2.058727   9.087104   30.852831
C   6.369786   10.526291   42.299271
O   6.394136   10.449057   40.950943
H   6.306577   11.006750   38.426381
C   3.023246   9.328218   39.782427
C   3.080635   9.752215   38.391445
C   4.295030   10.391505   37.927798
C   5.389333   10.545658   38.799669
C   5.323633   10.159123   40.201616
C   4.110853   9.510166   40.657170
H   4.420502   10.895440   45.147245
H   8.709761   10.370111   44.849316
H   8.563056   10.346238   42.386763
H   -0.366691   9.245079   36.558850
C   0.487178   9.222503   35.874612
C   0.273672   9.001649   34.496713
C   1.339992   8.987988   33.525929
O   1.944403   9.507277   37.717513
C   2.665958   9.164250   34.050189
H   3.517355   9.139514   33.360396
C   2.921836   9.317134   35.433182
H   3.954908   9.369608   35.766163
C   1.835796   9.385797   36.383753
H   4.381583   10.776989   36.909491
H   2.116021   8.833440   40.140983
C   5.217846   10.728143   43.142801
C   5.332593   10.741667   44.557432
H   4.235861   10.892695   42.693992
C   6.578896   10.576121   45.244357
H   7.401051   10.069614   19.304484
K_POINTS {automatic}
3 3 2 0 0 0
