&CONTROL
  calculation = 'scf',
  prefix = 'PEI_BPDA',
  outdir = './tmp/'
  pseudo_dir = './'
  verbosity = 'high'
  lelfield=.true.,
  nberrycyc=1

/

&SYSTEM
  ibrav =  0,
  nat =  258,
  ntyp = 4,
  ecutwfc = 40
/

&ELECTRONS
  mixing_beta = 0.5
  efield_cart(1)=0.d0,efield_cart(2)=0.d0,efield_cart(3)=0.d0
/

ATOMIC_SPECIES
C  12.010700   C_ONCV_PBE_sr.upf 
N  14.006700   N_ONCV_PBE_sr.upf 
H  1.007940    H_ONCV_PBE_sr.upf 
O  15.999000   O_ONCV_PBE_sr.upf 

CELL_PARAMETERS angstrom 
8.028927 0.0  0.0
0.000000 8.367046  0.0
0.000000 0.000000 46.071685
ATOMIC_POSITIONS (angstrom)
H   0.642315   8.681139   -0.407500
C   1.304549   9.434415   0.034789
C   1.665743   10.601507   -0.764827
H   3.876682   7.522341   3.016916
H   1.424543   8.275106   1.835404
H   4.980953   11.112723   3.301962
C   1.764148   9.187117   1.354578
C   2.700254   11.387862   -0.143368
H   2.993552   12.260658   -0.691148
C   2.787665   10.019628   1.951606
C   4.426063   8.476702   3.143871
C   3.309855   11.099874   1.108741
H   5.113868   8.690844   2.335242
C   4.097983   10.860654   3.927287
H   5.183964   8.397038   3.977445
H   4.111890   11.749527   1.492335
C   3.370012   9.612692   3.310892
H   3.364885   11.680607   4.033262
H   4.513834   10.676043   4.954757
C   2.308761   9.159435   4.290308
H   3.511207   7.524769   5.288418
H   0.912407   10.722567   3.621018
C   2.570136   8.097473   5.252732
C   1.060375   9.899248   4.331272
C   1.625710   7.809216   6.248879
C   0.093629   9.547654   5.294512
H   1.840390   7.025480   6.971847
H   -0.827395   10.108515   5.338665
C   0.344576   8.497405   6.267076
O   -0.738496   8.183210   7.005427
H   1.371303   8.289433   8.664375
C   -0.633532   7.668006   8.235499
C   0.566045   7.653893   9.047986
H   -2.799194   7.176325   8.307614
C   -1.816024   7.028629   8.768630
C   0.644616   6.890455   10.251148
H   1.546865   6.944679   10.859703
C   -1.759837   6.210279   9.934466
C   -0.488703   6.076995   10.673437
C   -2.926574   5.422193   10.623345
O   -4.075989   5.416784   10.353326
C   -0.761550   5.107927   11.847261
N   -2.246328   4.593267   11.770716
O   0.029723   4.874837   12.707551
H   -4.829346   3.615319   11.757925
C   -2.937580   3.789240   12.847801
C   -4.316587   3.441008   12.708912
H   -1.160633   3.470890   14.089228
C   -2.264375   3.359220   14.035948
C   -4.981443   2.806760   13.792934
H   -6.044589   2.662417   13.667353
C   -2.833461   2.566754   15.078537
C   -4.244245   2.377233   14.941157
O   0.252840   2.176868   15.564682
N   -2.088729   1.926777   16.224168
H   -4.689406   1.799814   15.767959
C   -0.574513   1.769702   16.338018
O   -3.832677   1.279606   17.894777
C   -2.723395   1.243062   17.516635
C   -0.250725   1.014451   17.619089
C   -1.532416   0.643213   18.298285
H   1.995312   0.807394   17.684148
C   1.010294   0.583753   18.175903
C   -1.457957   -0.045099   19.561320
H   -2.400278   -0.239765   20.053043
C   0.996668   -0.225473   19.346538
C   -0.212119   -0.460916   20.112459
H   1.930118   -0.710723   19.633421
H   2.026866   0.531091   21.142295
O   -0.303636   -0.872181   21.421340
C   1.839322   0.028345   22.107588
C   0.722031   -0.874914   22.290756
H   3.574747   0.876251   23.031985
H   4.798294   -1.535069   25.250988
H   5.131094   0.927355   24.666502
C   2.698147   0.260891   23.196182
C   0.526199   -1.492892   23.597882
H   -0.325616   -2.125731   23.815391
C   4.220495   -1.059173   26.099689
C   2.459879   -0.272670   24.532164
C   4.337328   1.282869   25.343957
H   4.982264   -0.730577   26.819109
C   1.328232   -1.173591   24.704020
H   3.817235   2.129106   24.891514
H   3.615839   -1.803721   26.636268
H   4.933952   1.634274   26.202096
C   3.311898   0.151100   25.693156
H   1.070217   -1.628575   25.664929
C   2.503421   0.601555   26.929115
H   0.829530   0.990375   25.503239
H   4.043859   0.606712   28.588737
C   1.150065   1.011737   26.579119
C   2.994908   0.793731   28.298919
C   0.264688   1.457339   27.602721
C   2.089439   1.295033   29.261507
H   -0.690031   1.911567   27.292447
H   2.429781   1.386640   30.288989
C   0.716324   1.676520   28.971241
O   -0.213763   2.104157   29.848449
H   2.177316   3.299963   30.620965
C   0.070145   2.782420   30.970888
C   1.345380   3.413231   31.287024
H   -1.908713   2.460931   31.747472
C   -0.984948   2.985737   31.925144
C   1.535593   4.128053   32.499231
H   2.516931   4.526620   32.679331
C   -0.851205   3.742711   33.130009
C   0.485034   4.351833   33.455572
C   -1.813104   4.098279   34.281082
O   -2.996098   4.082328   34.231022
C   0.494535   4.971928   34.829897
N   -0.998544   4.812173   35.368103
O   1.410403   5.514469   35.362166
C   -1.685593   5.926594   36.116057
H   0.146231   6.602026   37.099893
H   -3.738128   5.602253   35.468373
C   -0.928366   6.788287   36.966520
C   -3.081129   6.250033   36.087635
C   -1.421878   7.857798   37.765851
C   -3.681072   7.326683   36.794663
H   -4.779031   7.514879   36.726772
O   -2.401171   9.985600   39.897437
C   -2.825260   8.115450   37.620289
N   -0.616786   8.647021   38.767871
C   -1.337053   9.423141   39.936048
O   1.627586   7.604412   38.805629
C   0.764246   8.190983   39.369446
H   -3.333357   8.923153   38.149950
C   -0.397496   9.486852   41.138248
C   0.883230   8.743740   40.775854
H   -1.294108   10.793061   42.656655
C   -0.436044   10.166930   42.387384
C   2.036336   8.679740   41.649718
H   2.971771   8.189998   41.323944
C   0.716694   10.112771   43.256892
C   1.893325   9.346333   42.890436
O   0.873485   10.994370   44.256957
H   2.718600   9.308461   43.614034
C   7.584186   12.559474   6.908211
C   9.016680   12.836591   6.956985
C   9.736804   13.310766   5.836462
C   9.113997   13.552127   4.560301
C   6.913719   12.988980   5.684625
C   7.647209   13.337476   4.494609
C   9.703077   13.932826   3.199329
N   8.439329   14.075804   2.264371
C   9.928770   3.919774   20.454740
H   9.595844   12.734472   7.894393
H   10.798624   13.465367   5.980785
H   5.833094   12.973936   5.584557
O   6.069168   13.321447   2.627621
C   7.143479   13.597349   3.041957
O   10.855579   13.826440   2.914064
C   6.770836   11.859582   7.973202
C   5.356667   11.654890   7.694174
C   4.520737   11.047772   8.651889
C   5.100404   10.439169   9.839157
C   7.323919   11.385945   9.238446
C   6.552895   10.608756   10.160916
C   4.485173   9.509275   10.893688
N   5.673669   9.013854   11.789418
O   3.406604   9.014895   10.800226
H   4.850012   12.014116   6.782967
H   3.464105   10.915878   8.431634
H   8.381311   11.550962   9.435119
O   7.996004   9.991332   12.070635
C   6.979735   9.873262   11.465377
C   10.836740   4.312024   21.491605
H   10.565803   12.601115   42.945161
H   9.814337   5.024512   16.677585
C   6.317466   5.077941   18.597181
C   6.406850   5.377490   17.177429
C   7.659595   5.342310   16.491303
C   8.859731   5.130448   17.192692
C   8.767560   4.874660   18.627420
C   7.501459   4.862972   19.330457
C   9.575588   14.501931   46.008893
H   8.165085   2.599124   20.066043
O   9.914028   4.505703   19.222254
H   3.209862   6.351612   14.987062
C   4.167921   6.815327   14.678188
C   4.337237   7.631716   13.513810
H   7.705782   2.133181   22.437968
C   5.531127   8.256289   13.055640
O   5.226353   5.752381   16.610798
C   6.579574   8.157742   14.011519
H   7.537069   8.694630   13.909490
C   6.426669   7.453683   15.263349
H   7.277959   7.467794   15.929743
C   5.278193   6.618487   15.564300
H   7.674099   5.513356   15.426177
H   5.340888   5.061509   19.059624
C   10.585288   3.949298   22.849136
C   9.331899   3.403576   23.278644
H   11.307379   4.312883   23.594619
C   8.567391   2.825050   22.212344
H   7.368121   4.735895   20.433768
C   8.830907   3.038634   20.832042
H   3.477951   7.740791   12.891033
C   7.302338   5.749296   28.809238
C   5.993588   5.321149   28.241775
C   5.893360   4.588597   27.023227
C   7.110573   4.330257   26.283962
C   8.517188   5.548432   28.049477
C   8.442234   4.857446   26.796590
C   7.281421   3.683820   24.915665
N   8.807964   3.536687   24.680683
C   9.637609   14.317152   44.600516
H   5.059370   5.579973   28.721121
H   4.923824   4.251243   26.642137
H   9.489150   5.888057   28.386354
O   10.685113   4.541159   25.890018
C   9.527466   4.309572   25.849268
O   6.347062   3.312353   24.275519
H   7.306424   10.145682   36.338559
C   7.275797   6.399292   30.140905
C   5.953210   6.611069   30.758484
C   5.766775   7.203557   32.048921
C   6.932698   7.775839   32.690794
C   8.462315   6.799067   30.824561
C   8.294905   7.530303   32.059500
C   7.001833   8.659597   33.928438
N   8.524893   9.001319   34.102693
O   6.102912   8.906909   34.669689
H   5.090874   6.200502   30.337108
H   4.776600   7.299662   32.502753
H   9.444025   6.586691   30.348152
O   10.466456   8.142475   32.746451
C   9.293626   8.264639   32.928560
C   8.458329   14.139593   43.791389
O   8.289705   14.130284   42.439253
H   7.965598   14.350076   39.891208
C   10.998990   12.035219   40.909228
C   10.581978   12.100421   39.536385
C   9.483792   12.978187   39.168526
C   8.717258   13.627726   40.168653
C   9.067874   13.501853   41.561937
C   10.237730   12.706463   41.897557
H   6.299765   13.867001   46.474192
H   10.546778   14.634655   46.462364
H   10.588008   14.483996   44.117040
H   8.545461   10.991388   38.420463
C   9.066141   10.737735   37.502455
C   8.390447   10.269010   36.314633
C   9.138660   9.840617   35.163350
O   11.185327   11.313318   38.627027
C   10.563637   10.053523   35.229372
H   11.119593   9.883395   34.317193
C   11.264256   10.531544   36.372590
H   12.364550   10.776899   36.372687
C   10.516895   10.870926   37.547948
H   9.242349   13.089504   38.106749
H   11.920484   11.453842   41.105024
C   7.254370   14.074900   44.592620
C   7.248941   14.067620   46.032191
H   6.357397   13.913422   44.029983
C   8.413369   14.307642   46.851737
H   11.789574   4.807708   21.250372
K_POINTS {automatic}
3 3 2 0 0 0
